c This is UnifRandomKSATGenerator
c uniform random 3-SAT generated instance with: 
c clause length: 3 
c number variables: 20 
c number clauses: 85 
c clause to variable ratio: 4.27 
c random number generator name: SHA1PRNG 
c random number generator provider: SUN 
c random number generator seed: 7814262760912609907 
p cnf 20 85
10 -4 5 0
-17 -19 4 0
1 10 7 0
-3 19 -16 0
9 -19 -20 0
8 13 15 0
-5 20 -13 0
-17 18 -13 0
8 -5 4 0
12 4 -5 0
12 13 7 0
16 18 13 0
-4 -5 -14 0
-1 2 -16 0
-17 -3 6 0
2 -5 -14 0
-18 -2 -13 0
8 -9 -3 0
2 19 20 0
16 -15 -7 0
-2 3 14 0
-19 14 -15 0
10 19 20 0
16 12 15 0
-17 16 14 0
10 13 -15 0
-20 -6 -16 0
10 -11 13 0
-2 -11 -6 0
-6 5 -15 0
8 9 -4 0
12 -6 15 0
8 -12 20 0
10 -6 -15 0
16 19 4 0
2 10 4 0
-5 20 6 0
3 13 6 0
1 2 20 0
9 15 -16 0
-17 -1 10 0
-17 -9 5 0
9 19 -12 0
-19 -13 6 0
18 -11 3 0
9 11 4 0
13 6 14 0
20 -6 5 0
16 10 13 0
16 -5 -7 0
17 10 -20 0
16 18 -13 0
16 -13 20 0
-3 -20 -14 0
4 5 -7 0
-9 8 15 0
18 4 -15 0
-2 10 6 0
-17 13 -8 0
16 2 -4 0
-11 -4 19 0
-11 -4 20 0
11 -20 15 0
11 5 -15 0
3 -12 6 0
1 2 -5 0
-3 -11 6 0
-3 12 -15 0
16 -1 9 0
2 14 7 0
-9 -18 20 0
-1 -2 13 0
-17 3 -6 0
-1 -2 -7 0
8 9 -6 0
18 -4 12 0
-18 12 -8 0
16 -13 -6 0
8 12 13 0
-2 -3 15 0
17 5 6 0
10 19 7 0
-12 5 6 0
10 -3 -16 0
-10 2 -7 0
